c FILE: aim-50-1_6-yes1-2.cnf
c
c SOURCE: Kazuo Iwama, Eiji Miyano (miyano@cscu.kyushu-u.ac.jp),
c          and Yuichi Asahiro
c
c DESCRIPTION: Artifical instances from generator by source.  Generators
c              and more information in sat/contributed/iwama.
c
c NOTE: Satisfiable
c Simplified to make processing faster
p cnf 20 30
1 7 8 0
-7 13 15 0
-8 15 17 0
2 -15 3 0
-2 -15 18 0
-2 9 -18 0
-9 -4 -18 0
-9 16 -18 0
-11 -16 -18 0
12 4 -16 0
-12 11 10 0
6 -12 -10 0
-6 -10 5 0
-6 13 -5 0
-14 -13 -5 0
4 14 -13 0
-17 14 4 0
-4 -17 -4 0
-4 -19 17 0
17 19 11 0
-4 19 -11 0
17 -19 -20 0
-19 20 -9 0
20 -7 9 0
20 6 7 0
20 5 -6 0
14 -5 -6 0
-14 19 3 0
-19 -5 3 0
-14 4 -3 0